experiment/data/lkh-res/Vrp-Set-A-n69/Vrp-Set-A-n69-lkh/0.lkh1.vrp
NAME : 0
COMMENT : CVRP Instance
TYPE : CVRP
DIMENSION : 69
EDGE_WEIGHT_TYPE : EUC_2D
CAPACITY : 100
NODE_COORD_SECTION
1	5900	4400
2	900	2300
3	8400	6800
4	3600	9300
5	8700	900
6	3400	1600
7	4000	9800
8	7200	4300
9	0	6000
10	6400	9000
11	1100	800
12	4600	700
13	3300	5400
14	2300	8400
15	6700	1800
16	3400	9300
17	1900	2500
18	1400	900
19	7000	6400
20	5800	5000
21	500	7800
22	9500	3900
23	3800	5400
24	5000	7300
25	4800	4600
26	6400	400
27	3900	2800
28	7900	3000
29	6100	3600
30	2800	5000
31	5100	9100
32	6800	5900
33	1400	900
34	9400	8700
35	6800	2900
36	1200	9100
37	200	2200
38	2500	1600
39	1100	5700
40	300	5100
41	1300	5200
42	900	7600
43	5800	1800
44	4000	3900
45	3200	8900
46	900	9200
47	3600	1400
48	8200	1300
49	1000	2500
50	9600	9700
51	2000	2100
52	4000	9100
53	3300	3100
54	7200	7400
55	4100	2400
56	9000	2000
57	400	4400
58	5400	2200
59	4300	5900
60	300	7000
61	9400	1600
62	9400	5400
63	1400	4000
64	3700	0
65	8800	5500
66	8000	2500
67	3700	6400
68	8700	4700
69	1800	6800
DEMAND_SECTION
1	0
2	2
3	1
4	6
5	9
6	16
7	5
8	3
9	9
10	12
11	1
12	1
13	18
14	10
15	5
16	5
17	9
18	16
19	12
20	6
21	6
22	20
23	23
24	39
25	17
26	8
27	2
28	13
29	17
30	3
31	2
32	7
33	23
34	10
35	7
36	12
37	20
38	13
39	21
40	25
41	5
42	4
43	13
44	12
45	23
46	19
47	10
48	7
49	15
50	5
51	15
52	13
53	30
54	15
55	7
56	9
57	23
58	8
59	5
60	8
61	25
62	12
63	25
64	24
65	8
66	22
67	7
68	24
69	18
DEPOT_SECTION
1
-1
EOF
