experiment/data/lkh-res/Vrp-Set-A-n69/Vrp-Set-A-n69-lkh/0.lkh1.log
PARAMETER_FILE = baseline_results/cvrp_lkh/Vrp-Set-A-n69/Vrp-Set-A-n69-lkh/0.lkh1.par
Reading PROBLEM_FILE: "baseline_results/cvrp_lkh/Vrp-Set-A-n69/Vrp-Set-A-n69-lkh/0.lkh1.vrp" ... done
ASCENT_CANDIDATES = 50
BACKBONE_TRIALS = 0
BACKTRACKING = NO
# BWTSP =
# CANDIDATE_FILE =
CANDIDATE_SET_TYPE = ALPHA
# DISTANCE =
DEPOT = 1
# EDGE_FILE =
EXCESS = 0.0144928
EXTERNAL_SALESMEN = 0
EXTRA_CANDIDATES = 0 
EXTRA_CANDIDATE_SET_TYPE = QUADRANT
GAIN23 = NO
GAIN_CRITERION = YES
INITIAL_PERIOD = 100
INITIAL_STEP_SIZE = 1
INITIAL_TOUR_ALGORITHM = WALK
# INITIAL_TOUR_FILE = 
INITIAL_TOUR_FRACTION = 1.000
# INPUT_TOUR_FILE = 
KICK_TYPE = 4
KICKS = 1
# MAX_BREADTH =
MAKESPAN = NO
MAX_CANDIDATES = 5 
MAX_SWAPS = 0
MAX_TRIALS = 10000
# MERGE_TOUR_FILE =
MOVE_TYPE = 5 SPECIAL
MTSP_MIN_SIZE = 1
MTSP_MAX_SIZE = 68
# MTSP_SOLUTION_FILE = 
# NONSEQUENTIAL_MOVE_TYPE = 5
# OPTIMUM =
OUTPUT_TOUR_FILE = baseline_results/cvrp_lkh/Vrp-Set-A-n69/Vrp-Set-A-n69-lkh/0.lkh1.tour
PATCHING_A = 1 
PATCHING_C = 0 
# PI_FILE = 
POPMUSIC_INITIAL_TOUR = NO
POPMUSIC_MAX_NEIGHBORS = 5
POPMUSIC_SAMPLE_SIZE = 10
POPMUSIC_SOLUTIONS = 50
POPMUSIC_TRIALS = 1
POPULATION_SIZE = 10
PRECISION = 100
PROBLEM_FILE = baseline_results/cvrp_lkh/Vrp-Set-A-n69/Vrp-Set-A-n69-lkh/0.lkh1.vrp
RECOMBINATION = IPT
RESTRICTED_SEARCH = YES
RUNS = 1
SALESMEN = 9
SCALE = 1
SEED = 1234
# SINTEF_SOLUTION_FILE = 
STOP_AT_OPTIMUM = YES
SUBGRADIENT = YES
# SUBPROBLEM_SIZE =
# SUBPROBLEM_TOUR_FILE = 
SUBSEQUENT_MOVE_TYPE = 5 SPECIAL
SUBSEQUENT_PATCHING = YES
# TIME_LIMIT =
# TOTAL_TIME_LIMIT =
# TOUR_FILE = 
TRACE_LEVEL = 1
VEHICLES = 9

Lower bound = 87176.0, Ascent time = 0.02 sec.
Cand.min = 5, Cand.avg = 5.0, Cand.max = 5
Preprocessing time = 0.02 sec.
* 1: Cost = 0_125156, Time = 0.01 sec. 
Writing OUTPUT_TOUR_FILE: "baseline_results/cvrp_lkh/Vrp-Set-A-n69/Vrp-Set-A-n69-lkh/0.lkh1.tour" ... done
* 2: Cost = 0_120203, Time = 0.01 sec. 
Writing OUTPUT_TOUR_FILE: "baseline_results/cvrp_lkh/Vrp-Set-A-n69/Vrp-Set-A-n69-lkh/0.lkh1.tour" ... done
* 3: Cost = 0_119156, Time = 0.02 sec. 
Writing OUTPUT_TOUR_FILE: "baseline_results/cvrp_lkh/Vrp-Set-A-n69/Vrp-Set-A-n69-lkh/0.lkh1.tour" ... done
* 6: Cost = 0_119131, Time = 0.03 sec. 
Writing OUTPUT_TOUR_FILE: "baseline_results/cvrp_lkh/Vrp-Set-A-n69/Vrp-Set-A-n69-lkh/0.lkh1.tour" ... done
* 8: Cost = 0_118514, Time = 0.03 sec. 
Writing OUTPUT_TOUR_FILE: "baseline_results/cvrp_lkh/Vrp-Set-A-n69/Vrp-Set-A-n69-lkh/0.lkh1.tour" ... done
* 17: Cost = 0_118093, Time = 0.06 sec. 
Writing OUTPUT_TOUR_FILE: "baseline_results/cvrp_lkh/Vrp-Set-A-n69/Vrp-Set-A-n69-lkh/0.lkh1.tour" ... done
* 26: Cost = 0_117832, Time = 0.08 sec. 
Writing OUTPUT_TOUR_FILE: "baseline_results/cvrp_lkh/Vrp-Set-A-n69/Vrp-Set-A-n69-lkh/0.lkh1.tour" ... done
* 35: Cost = 0_117637, Time = 0.09 sec. 
Writing OUTPUT_TOUR_FILE: "baseline_results/cvrp_lkh/Vrp-Set-A-n69/Vrp-Set-A-n69-lkh/0.lkh1.tour" ... done
* 38: Cost = 0_117540, Time = 0.11 sec. 
Writing OUTPUT_TOUR_FILE: "baseline_results/cvrp_lkh/Vrp-Set-A-n69/Vrp-Set-A-n69-lkh/0.lkh1.tour" ... done
* 49: Cost = 0_117316, Time = 0.13 sec. 
Writing OUTPUT_TOUR_FILE: "baseline_results/cvrp_lkh/Vrp-Set-A-n69/Vrp-Set-A-n69-lkh/0.lkh1.tour" ... done
* 62: Cost = 0_117314, Time = 0.16 sec. 
Writing OUTPUT_TOUR_FILE: "baseline_results/cvrp_lkh/Vrp-Set-A-n69/Vrp-Set-A-n69-lkh/0.lkh1.tour" ... done
* 79: Cost = 0_117308, Time = 0.21 sec. 
Writing OUTPUT_TOUR_FILE: "baseline_results/cvrp_lkh/Vrp-Set-A-n69/Vrp-Set-A-n69-lkh/0.lkh1.tour" ... done
* 86: Cost = 0_117182, Time = 0.23 sec. 
Writing OUTPUT_TOUR_FILE: "baseline_results/cvrp_lkh/Vrp-Set-A-n69/Vrp-Set-A-n69-lkh/0.lkh1.tour" ... done
* 135: Cost = 0_117176, Time = 0.38 sec. 
Writing OUTPUT_TOUR_FILE: "baseline_results/cvrp_lkh/Vrp-Set-A-n69/Vrp-Set-A-n69-lkh/0.lkh1.tour" ... done
* 162: Cost = 0_117109, Time = 0.43 sec. 
Writing OUTPUT_TOUR_FILE: "baseline_results/cvrp_lkh/Vrp-Set-A-n69/Vrp-Set-A-n69-lkh/0.lkh1.tour" ... done
* 193: Cost = 0_117091, Time = 0.55 sec. 
Writing OUTPUT_TOUR_FILE: "baseline_results/cvrp_lkh/Vrp-Set-A-n69/Vrp-Set-A-n69-lkh/0.lkh1.tour" ... done
* 239: Cost = 0_117006, Time = 0.71 sec. 
Writing OUTPUT_TOUR_FILE: "baseline_results/cvrp_lkh/Vrp-Set-A-n69/Vrp-Set-A-n69-lkh/0.lkh1.tour" ... done
* 4028: Cost = 0_116872, Time = 10.14 sec. 
Writing OUTPUT_TOUR_FILE: "baseline_results/cvrp_lkh/Vrp-Set-A-n69/Vrp-Set-A-n69-lkh/0.lkh1.tour" ... done
Population:
  1: 0_116872
Run 1: Cost = 0_116872, Time = 30.18 sec. 

Successes/Runs = 0/1 
Cost.min = 116872, Cost.avg = 116872.00, Cost.max = 116872
Gap.min = 0.0000%, Gap.avg = 0.0000%, Gap.max = 0.0000%
Penalty.min = 0, Penalty.avg = 0.00, Penalty.max = 0
Trials.min = 10000, Trials.avg = 10000.0, Trials.max = 10000
Time.min = 30.18 sec., Time.avg = 30.18 sec., Time.max = 30.18 sec.
Time.total = 30.20 sec.
  Size.min = 5, Size.max = 12, Penalty = 0
  Cost.min = 7714, Cost.max = 20744, Cost.sum = 116872
Best CVRP solution:
  Cost = 0_116872

