experiment/data/lkh-res/Vrp-Set-A-n69/Vrp-Set-A-n69-lkh/0.lkh1.tour
NAME : 0.116872.tour
COMMENT : Length = 116872
COMMENT : Found by LKH-3 [Keld Helsgaun] Tue Apr  9 00:51:27 2024
TYPE : TOUR
DIMENSION : 77
TOUR_SECTION
1
63
57
40
41
13
73
35
48
5
61
56
66
28
8
72
30
39
9
60
21
46
36
42
69
71
25
23
59
24
20
77
27
33
18
11
37
2
49
17
44
75
55
47
6
38
51
53
70
29
15
26
64
12
43
58
76
68
22
62
65
54
19
32
74
3
34
50
10
31
52
7
4
16
45
14
67
-1
EOF
